p cnf 1038 2040
-7 -619 -121 0 
-121 -620 -128 0 
-128 -621 -135 0 
-135 -622 -142 0 
-142 -623 -149 0 
-149 -624 -156 0 
-156 -625 -163 0 
-163 -626 -170 0 
-170 -627 -177 0 
-177 -628 -184 0 
-7 -629 -121 0 
-121 -630 -128 0 
-128 -631 -135 0 
-135 -632 -142 0 
-142 -633 -149 0 
-149 -634 -156 0 
-156 -635 -163 0 
-163 -636 -170 0 
-170 -637 -177 0 
-177 -638 -184 0 
-7 -639 -121 0 
-121 -640 -128 0 
-128 -641 -135 0 
-135 -642 -142 0 
-142 -643 -149 0 
-149 -644 -156 0 
-156 -645 -163 0 
-163 -646 -170 0 
-170 -647 -177 0 
-177 -648 -184 0 
-7 -649 -121 0 
-121 -650 -128 0 
-128 -651 -135 0 
-135 -652 -142 0 
-142 -653 -149 0 
-149 -654 -156 0 
-156 -655 -163 0 
-163 -656 -170 0 
-170 -657 -177 0 
-177 -658 -184 0 
-7 -659 -121 0 
-121 -660 -128 0 
-128 -661 -135 0 
-135 -662 -142 0 
-142 -663 -149 0 
-149 -664 -156 0 
-156 -665 -163 0 
-163 -666 -170 0 
-170 -667 -177 0 
-177 -668 -184 0 
-7 -669 -121 0 
-121 -670 -128 0 
-128 -671 -135 0 
-135 -672 -142 0 
-142 -673 -149 0 
-149 -674 -156 0 
-156 -675 -163 0 
-163 -676 -170 0 
-170 -677 -177 0 
-177 -678 -184 0 
-14 -679 -185 0 
-185 -680 -192 0 
-192 -681 -199 0 
-199 -682 -206 0 
-206 -683 -213 0 
-213 -684 -220 0 
-220 -685 -227 0 
-227 -686 -234 0 
-234 -687 -241 0 
-241 -688 -248 0 
-14 -689 -185 0 
-185 -690 -192 0 
-192 -691 -199 0 
-199 -692 -206 0 
-206 -693 -213 0 
-213 -694 -220 0 
-220 -695 -227 0 
-227 -696 -234 0 
-234 -697 -241 0 
-241 -698 -248 0 
-14 -699 -185 0 
-185 -700 -192 0 
-192 -701 -199 0 
-199 -702 -206 0 
-206 -703 -213 0 
-213 -704 -220 0 
-220 -705 -227 0 
-227 -706 -234 0 
-234 -707 -241 0 
-241 -708 -248 0 
-14 -709 -185 0 
-185 -710 -192 0 
-192 -711 -199 0 
-199 -712 -206 0 
-206 -713 -213 0 
-213 -714 -220 0 
-220 -715 -227 0 
-227 -716 -234 0 
-234 -717 -241 0 
-241 -718 -248 0 
-14 -719 -185 0 
-185 -720 -192 0 
-192 -721 -199 0 
-199 -722 -206 0 
-206 -723 -213 0 
-213 -724 -220 0 
-220 -725 -227 0 
-227 -726 -234 0 
-234 -727 -241 0 
-241 -728 -248 0 
-14 -729 -185 0 
-185 -730 -192 0 
-192 -731 -199 0 
-199 -732 -206 0 
-206 -733 -213 0 
-213 -734 -220 0 
-220 -735 -227 0 
-227 -736 -234 0 
-234 -737 -241 0 
-241 -738 -248 0 
-21 -739 -249 0 
-249 -740 -256 0 
-256 -741 -263 0 
-263 -742 -270 0 
-270 -743 -277 0 
-277 -744 -284 0 
-284 -745 -291 0 
-291 -746 -298 0 
-298 -747 -305 0 
-305 -748 -312 0 
-21 -749 -249 0 
-249 -750 -256 0 
-256 -751 -263 0 
-263 -752 -270 0 
-270 -753 -277 0 
-277 -754 -284 0 
-284 -755 -291 0 
-291 -756 -298 0 
-298 -757 -305 0 
-305 -758 -312 0 
-21 -759 -249 0 
-249 -760 -256 0 
-256 -761 -263 0 
-263 -762 -270 0 
-270 -763 -277 0 
-277 -764 -284 0 
-284 -765 -291 0 
-291 -766 -298 0 
-298 -767 -305 0 
-305 -768 -312 0 
-21 -769 -249 0 
-249 -770 -256 0 
-256 -771 -263 0 
-263 -772 -270 0 
-270 -773 -277 0 
-277 -774 -284 0 
-284 -775 -291 0 
-291 -776 -298 0 
-298 -777 -305 0 
-305 -778 -312 0 
-21 -779 -249 0 
-249 -780 -256 0 
-256 -781 -263 0 
-263 -782 -270 0 
-270 -783 -277 0 
-277 -784 -284 0 
-284 -785 -291 0 
-291 -786 -298 0 
-298 -787 -305 0 
-305 -788 -312 0 
-21 -789 -249 0 
-249 -790 -256 0 
-256 -791 -263 0 
-263 -792 -270 0 
-270 -793 -277 0 
-277 -794 -284 0 
-284 -795 -291 0 
-291 -796 -298 0 
-298 -797 -305 0 
-305 -798 -312 0 
-28 -799 -313 0 
-313 -800 -320 0 
-320 -801 -327 0 
-327 -802 -334 0 
-334 -803 -341 0 
-341 -804 -348 0 
-348 -805 -355 0 
-355 -806 -362 0 
-362 -807 -369 0 
-369 -808 -376 0 
-28 -809 -313 0 
-313 -810 -320 0 
-320 -811 -327 0 
-327 -812 -334 0 
-334 -813 -341 0 
-341 -814 -348 0 
-348 -815 -355 0 
-355 -816 -362 0 
-362 -817 -369 0 
-369 -818 -376 0 
-28 -819 -313 0 
-313 -820 -320 0 
-320 -821 -327 0 
-327 -822 -334 0 
-334 -823 -341 0 
-341 -824 -348 0 
-348 -825 -355 0 
-355 -826 -362 0 
-362 -827 -369 0 
-369 -828 -376 0 
-28 -829 -313 0 
-313 -830 -320 0 
-320 -831 -327 0 
-327 -832 -334 0 
-334 -833 -341 0 
-341 -834 -348 0 
-348 -835 -355 0 
-355 -836 -362 0 
-362 -837 -369 0 
-369 -838 -376 0 
-28 -839 -313 0 
-313 -840 -320 0 
-320 -841 -327 0 
-327 -842 -334 0 
-334 -843 -341 0 
-341 -844 -348 0 
-348 -845 -355 0 
-355 -846 -362 0 
-362 -847 -369 0 
-369 -848 -376 0 
-28 -849 -313 0 
-313 -850 -320 0 
-320 -851 -327 0 
-327 -852 -334 0 
-334 -853 -341 0 
-341 -854 -348 0 
-348 -855 -355 0 
-355 -856 -362 0 
-362 -857 -369 0 
-369 -858 -376 0 
-35 -859 -377 0 
-377 -860 -384 0 
-384 -861 -391 0 
-391 -862 -398 0 
-398 -863 -405 0 
-405 -864 -412 0 
-412 -865 -419 0 
-419 -866 -426 0 
-426 -867 -433 0 
-433 -868 -440 0 
-35 -869 -377 0 
-377 -870 -384 0 
-384 -871 -391 0 
-391 -872 -398 0 
-398 -873 -405 0 
-405 -874 -412 0 
-412 -875 -419 0 
-419 -876 -426 0 
-426 -877 -433 0 
-433 -878 -440 0 
-35 -879 -377 0 
-377 -880 -384 0 
-384 -881 -391 0 
-391 -882 -398 0 
-398 -883 -405 0 
-405 -884 -412 0 
-412 -885 -419 0 
-419 -886 -426 0 
-426 -887 -433 0 
-433 -888 -440 0 
-35 -889 -377 0 
-377 -890 -384 0 
-384 -891 -391 0 
-391 -892 -398 0 
-398 -893 -405 0 
-405 -894 -412 0 
-412 -895 -419 0 
-419 -896 -426 0 
-426 -897 -433 0 
-433 -898 -440 0 
-35 -899 -377 0 
-377 -900 -384 0 
-384 -901 -391 0 
-391 -902 -398 0 
-398 -903 -405 0 
-405 -904 -412 0 
-412 -905 -419 0 
-419 -906 -426 0 
-426 -907 -433 0 
-433 -908 -440 0 
-35 -909 -377 0 
-377 -910 -384 0 
-384 -911 -391 0 
-391 -912 -398 0 
-398 -913 -405 0 
-405 -914 -412 0 
-412 -915 -419 0 
-419 -916 -426 0 
-426 -917 -433 0 
-433 -918 -440 0 
-42 -919 -441 0 
-441 -920 -448 0 
-448 -921 -455 0 
-455 -922 -462 0 
-462 -923 -469 0 
-469 -924 -476 0 
-476 -925 -483 0 
-483 -926 -490 0 
-490 -927 -497 0 
-497 -928 -504 0 
-42 -929 -441 0 
-441 -930 -448 0 
-448 -931 -455 0 
-455 -932 -462 0 
-462 -933 -469 0 
-469 -934 -476 0 
-476 -935 -483 0 
-483 -936 -490 0 
-490 -937 -497 0 
-497 -938 -504 0 
-42 -939 -441 0 
-441 -940 -448 0 
-448 -941 -455 0 
-455 -942 -462 0 
-462 -943 -469 0 
-469 -944 -476 0 
-476 -945 -483 0 
-483 -946 -490 0 
-490 -947 -497 0 
-497 -948 -504 0 
-42 -949 -441 0 
-441 -950 -448 0 
-448 -951 -455 0 
-455 -952 -462 0 
-462 -953 -469 0 
-469 -954 -476 0 
-476 -955 -483 0 
-483 -956 -490 0 
-490 -957 -497 0 
-497 -958 -504 0 
-42 -959 -441 0 
-441 -960 -448 0 
-448 -961 -455 0 
-455 -962 -462 0 
-462 -963 -469 0 
-469 -964 -476 0 
-476 -965 -483 0 
-483 -966 -490 0 
-490 -967 -497 0 
-497 -968 -504 0 
-42 -969 -441 0 
-441 -970 -448 0 
-448 -971 -455 0 
-455 -972 -462 0 
-462 -973 -469 0 
-469 -974 -476 0 
-476 -975 -483 0 
-483 -976 -490 0 
-490 -977 -497 0 
-497 -978 -504 0 
-49 -979 -505 0 
-505 -980 -507 0 
-507 -981 -509 0 
-509 -982 -511 0 
-511 -983 -513 0 
-513 -984 -515 0 
-515 -985 -517 0 
-517 -986 -519 0 
-519 -987 -521 0 
-521 -988 -523 0 
-51 -989 -524 0 
-524 -990 -526 0 
-526 -991 -528 0 
-528 -992 -530 0 
-530 -993 -532 0 
-532 -994 -534 0 
-534 -995 -536 0 
-536 -996 -538 0 
-538 -997 -540 0 
-540 -998 -542 0 
-53 -999 -543 0 
-543 -1000 -545 0 
-545 -1001 -547 0 
-547 -1002 -549 0 
-549 -1003 -551 0 
-551 -1004 -553 0 
-553 -1005 -555 0 
-555 -1006 -557 0 
-557 -1007 -559 0 
-559 -1008 -561 0 
-55 -1009 -562 0 
-562 -1010 -564 0 
-564 -1011 -566 0 
-566 -1012 -568 0 
-568 -1013 -570 0 
-570 -1014 -572 0 
-572 -1015 -574 0 
-574 -1016 -576 0 
-576 -1017 -578 0 
-578 -1018 -580 0 
-57 -1019 -581 0 
-581 -1020 -583 0 
-583 -1021 -585 0 
-585 -1022 -587 0 
-587 -1023 -589 0 
-589 -1024 -591 0 
-591 -1025 -593 0 
-593 -1026 -595 0 
-595 -1027 -597 0 
-597 -1028 -599 0 
-59 -1029 -600 0 
-600 -1030 -602 0 
-602 -1031 -604 0 
-604 -1032 -606 0 
-606 -1033 -608 0 
-608 -1034 -610 0 
-610 -1035 -612 0 
-612 -1036 -614 0 
-614 -1037 -616 0 
-616 -1038 -618 0 
-1 61 0 
1 -61 0 
-61 62 0 
61 -62 0 
-62 63 0 
62 -63 0 
-63 64 0 
63 -64 0 
-64 65 0 
64 -65 0 
-65 66 0 
65 -66 0 
-66 67 0 
66 -67 0 
-67 68 0 
67 -68 0 
-68 69 0 
68 -69 0 
-69 70 0 
69 -70 0 
-2 71 0 
2 -71 0 
-71 72 0 
71 -72 0 
-72 73 0 
72 -73 0 
-73 74 0 
73 -74 0 
-74 75 0 
74 -75 0 
-75 76 0 
75 -76 0 
-76 77 0 
76 -77 0 
-77 78 0 
77 -78 0 
-78 79 0 
78 -79 0 
-79 80 0 
79 -80 0 
-3 81 0 
3 -81 0 
-81 82 0 
81 -82 0 
-82 83 0 
82 -83 0 
-83 84 0 
83 -84 0 
-84 85 0 
84 -85 0 
-85 86 0 
85 -86 0 
-86 87 0 
86 -87 0 
-87 88 0 
87 -88 0 
-88 89 0 
88 -89 0 
-89 90 0 
89 -90 0 
-4 91 0 
4 -91 0 
-91 92 0 
91 -92 0 
-92 93 0 
92 -93 0 
-93 94 0 
93 -94 0 
-94 95 0 
94 -95 0 
-95 96 0 
95 -96 0 
-96 97 0 
96 -97 0 
-97 98 0 
97 -98 0 
-98 99 0 
98 -99 0 
-99 100 0 
99 -100 0 
-5 101 0 
5 -101 0 
-101 102 0 
101 -102 0 
-102 103 0 
102 -103 0 
-103 104 0 
103 -104 0 
-104 105 0 
104 -105 0 
-105 106 0 
105 -106 0 
-106 107 0 
106 -107 0 
-107 108 0 
107 -108 0 
-108 109 0 
108 -109 0 
-109 110 0 
109 -110 0 
-6 111 0 
6 -111 0 
-111 112 0 
111 -112 0 
-112 113 0 
112 -113 0 
-113 114 0 
113 -114 0 
-114 115 0 
114 -115 0 
-115 116 0 
115 -116 0 
-116 117 0 
116 -117 0 
-117 118 0 
117 -118 0 
-118 119 0 
118 -119 0 
-119 120 0 
119 -120 0 
-7 -619 8 0 
-8 7 0 
-8 619 0 
-7 -629 9 0 
-9 7 0 
-9 629 0 
-7 -639 10 0 
-10 7 0 
-10 639 0 
-7 -649 11 0 
-11 7 0 
-11 649 0 
-7 -659 12 0 
-12 7 0 
-12 659 0 
-7 -669 13 0 
-13 7 0 
-13 669 0 
8 9 10 11 12 13 -7 121 0 
7 -121 0 
-121 -620 122 0 
-122 121 0 
-122 620 0 
-121 -630 123 0 
-123 121 0 
-123 630 0 
-121 -640 124 0 
-124 121 0 
-124 640 0 
-121 -650 125 0 
-125 121 0 
-125 650 0 
-121 -660 126 0 
-126 121 0 
-126 660 0 
-121 -670 127 0 
-127 121 0 
-127 670 0 
122 123 124 125 126 127 -121 128 0 
121 -128 0 
-128 -621 129 0 
-129 128 0 
-129 621 0 
-128 -631 130 0 
-130 128 0 
-130 631 0 
-128 -641 131 0 
-131 128 0 
-131 641 0 
-128 -651 132 0 
-132 128 0 
-132 651 0 
-128 -661 133 0 
-133 128 0 
-133 661 0 
-128 -671 134 0 
-134 128 0 
-134 671 0 
129 130 131 132 133 134 -128 135 0 
128 -135 0 
-135 -622 136 0 
-136 135 0 
-136 622 0 
-135 -632 137 0 
-137 135 0 
-137 632 0 
-135 -642 138 0 
-138 135 0 
-138 642 0 
-135 -652 139 0 
-139 135 0 
-139 652 0 
-135 -662 140 0 
-140 135 0 
-140 662 0 
-135 -672 141 0 
-141 135 0 
-141 672 0 
136 137 138 139 140 141 -135 142 0 
135 -142 0 
-142 -623 143 0 
-143 142 0 
-143 623 0 
-142 -633 144 0 
-144 142 0 
-144 633 0 
-142 -643 145 0 
-145 142 0 
-145 643 0 
-142 -653 146 0 
-146 142 0 
-146 653 0 
-142 -663 147 0 
-147 142 0 
-147 663 0 
-142 -673 148 0 
-148 142 0 
-148 673 0 
143 144 145 146 147 148 -142 149 0 
142 -149 0 
-149 -624 150 0 
-150 149 0 
-150 624 0 
-149 -634 151 0 
-151 149 0 
-151 634 0 
-149 -644 152 0 
-152 149 0 
-152 644 0 
-149 -654 153 0 
-153 149 0 
-153 654 0 
-149 -664 154 0 
-154 149 0 
-154 664 0 
-149 -674 155 0 
-155 149 0 
-155 674 0 
150 151 152 153 154 155 -149 156 0 
149 -156 0 
-156 -625 157 0 
-157 156 0 
-157 625 0 
-156 -635 158 0 
-158 156 0 
-158 635 0 
-156 -645 159 0 
-159 156 0 
-159 645 0 
-156 -655 160 0 
-160 156 0 
-160 655 0 
-156 -665 161 0 
-161 156 0 
-161 665 0 
-156 -675 162 0 
-162 156 0 
-162 675 0 
157 158 159 160 161 162 -156 163 0 
156 -163 0 
-163 -626 164 0 
-164 163 0 
-164 626 0 
-163 -636 165 0 
-165 163 0 
-165 636 0 
-163 -646 166 0 
-166 163 0 
-166 646 0 
-163 -656 167 0 
-167 163 0 
-167 656 0 
-163 -666 168 0 
-168 163 0 
-168 666 0 
-163 -676 169 0 
-169 163 0 
-169 676 0 
164 165 166 167 168 169 -163 170 0 
163 -170 0 
-170 -627 171 0 
-171 170 0 
-171 627 0 
-170 -637 172 0 
-172 170 0 
-172 637 0 
-170 -647 173 0 
-173 170 0 
-173 647 0 
-170 -657 174 0 
-174 170 0 
-174 657 0 
-170 -667 175 0 
-175 170 0 
-175 667 0 
-170 -677 176 0 
-176 170 0 
-176 677 0 
171 172 173 174 175 176 -170 177 0 
170 -177 0 
-177 -628 178 0 
-178 177 0 
-178 628 0 
-177 -638 179 0 
-179 177 0 
-179 638 0 
-177 -648 180 0 
-180 177 0 
-180 648 0 
-177 -658 181 0 
-181 177 0 
-181 658 0 
-177 -668 182 0 
-182 177 0 
-182 668 0 
-177 -678 183 0 
-183 177 0 
-183 678 0 
178 179 180 181 182 183 -177 184 0 
177 -184 0 
-14 -679 15 0 
-15 14 0 
-15 679 0 
-14 -689 16 0 
-16 14 0 
-16 689 0 
-14 -699 17 0 
-17 14 0 
-17 699 0 
-14 -709 18 0 
-18 14 0 
-18 709 0 
-14 -719 19 0 
-19 14 0 
-19 719 0 
-14 -729 20 0 
-20 14 0 
-20 729 0 
15 16 17 18 19 20 -14 185 0 
14 -185 0 
-185 -680 186 0 
-186 185 0 
-186 680 0 
-185 -690 187 0 
-187 185 0 
-187 690 0 
-185 -700 188 0 
-188 185 0 
-188 700 0 
-185 -710 189 0 
-189 185 0 
-189 710 0 
-185 -720 190 0 
-190 185 0 
-190 720 0 
-185 -730 191 0 
-191 185 0 
-191 730 0 
186 187 188 189 190 191 -185 192 0 
185 -192 0 
-192 -681 193 0 
-193 192 0 
-193 681 0 
-192 -691 194 0 
-194 192 0 
-194 691 0 
-192 -701 195 0 
-195 192 0 
-195 701 0 
-192 -711 196 0 
-196 192 0 
-196 711 0 
-192 -721 197 0 
-197 192 0 
-197 721 0 
-192 -731 198 0 
-198 192 0 
-198 731 0 
193 194 195 196 197 198 -192 199 0 
192 -199 0 
-199 -682 200 0 
-200 199 0 
-200 682 0 
-199 -692 201 0 
-201 199 0 
-201 692 0 
-199 -702 202 0 
-202 199 0 
-202 702 0 
-199 -712 203 0 
-203 199 0 
-203 712 0 
-199 -722 204 0 
-204 199 0 
-204 722 0 
-199 -732 205 0 
-205 199 0 
-205 732 0 
200 201 202 203 204 205 -199 206 0 
199 -206 0 
-206 -683 207 0 
-207 206 0 
-207 683 0 
-206 -693 208 0 
-208 206 0 
-208 693 0 
-206 -703 209 0 
-209 206 0 
-209 703 0 
-206 -713 210 0 
-210 206 0 
-210 713 0 
-206 -723 211 0 
-211 206 0 
-211 723 0 
-206 -733 212 0 
-212 206 0 
-212 733 0 
207 208 209 210 211 212 -206 213 0 
206 -213 0 
-213 -684 214 0 
-214 213 0 
-214 684 0 
-213 -694 215 0 
-215 213 0 
-215 694 0 
-213 -704 216 0 
-216 213 0 
-216 704 0 
-213 -714 217 0 
-217 213 0 
-217 714 0 
-213 -724 218 0 
-218 213 0 
-218 724 0 
-213 -734 219 0 
-219 213 0 
-219 734 0 
214 215 216 217 218 219 -213 220 0 
213 -220 0 
-220 -685 221 0 
-221 220 0 
-221 685 0 
-220 -695 222 0 
-222 220 0 
-222 695 0 
-220 -705 223 0 
-223 220 0 
-223 705 0 
-220 -715 224 0 
-224 220 0 
-224 715 0 
-220 -725 225 0 
-225 220 0 
-225 725 0 
-220 -735 226 0 
-226 220 0 
-226 735 0 
221 222 223 224 225 226 -220 227 0 
220 -227 0 
-227 -686 228 0 
-228 227 0 
-228 686 0 
-227 -696 229 0 
-229 227 0 
-229 696 0 
-227 -706 230 0 
-230 227 0 
-230 706 0 
-227 -716 231 0 
-231 227 0 
-231 716 0 
-227 -726 232 0 
-232 227 0 
-232 726 0 
-227 -736 233 0 
-233 227 0 
-233 736 0 
228 229 230 231 232 233 -227 234 0 
227 -234 0 
-234 -687 235 0 
-235 234 0 
-235 687 0 
-234 -697 236 0 
-236 234 0 
-236 697 0 
-234 -707 237 0 
-237 234 0 
-237 707 0 
-234 -717 238 0 
-238 234 0 
-238 717 0 
-234 -727 239 0 
-239 234 0 
-239 727 0 
-234 -737 240 0 
-240 234 0 
-240 737 0 
235 236 237 238 239 240 -234 241 0 
234 -241 0 
-241 -688 242 0 
-242 241 0 
-242 688 0 
-241 -698 243 0 
-243 241 0 
-243 698 0 
-241 -708 244 0 
-244 241 0 
-244 708 0 
-241 -718 245 0 
-245 241 0 
-245 718 0 
-241 -728 246 0 
-246 241 0 
-246 728 0 
-241 -738 247 0 
-247 241 0 
-247 738 0 
242 243 244 245 246 247 -241 248 0 
241 -248 0 
-21 -739 22 0 
-22 21 0 
-22 739 0 
-21 -749 23 0 
-23 21 0 
-23 749 0 
-21 -759 24 0 
-24 21 0 
-24 759 0 
-21 -769 25 0 
-25 21 0 
-25 769 0 
-21 -779 26 0 
-26 21 0 
-26 779 0 
-21 -789 27 0 
-27 21 0 
-27 789 0 
22 23 24 25 26 27 -21 249 0 
21 -249 0 
-249 -740 250 0 
-250 249 0 
-250 740 0 
-249 -750 251 0 
-251 249 0 
-251 750 0 
-249 -760 252 0 
-252 249 0 
-252 760 0 
-249 -770 253 0 
-253 249 0 
-253 770 0 
-249 -780 254 0 
-254 249 0 
-254 780 0 
-249 -790 255 0 
-255 249 0 
-255 790 0 
250 251 252 253 254 255 -249 256 0 
249 -256 0 
-256 -741 257 0 
-257 256 0 
-257 741 0 
-256 -751 258 0 
-258 256 0 
-258 751 0 
-256 -761 259 0 
-259 256 0 
-259 761 0 
-256 -771 260 0 
-260 256 0 
-260 771 0 
-256 -781 261 0 
-261 256 0 
-261 781 0 
-256 -791 262 0 
-262 256 0 
-262 791 0 
257 258 259 260 261 262 -256 263 0 
256 -263 0 
-263 -742 264 0 
-264 263 0 
-264 742 0 
-263 -752 265 0 
-265 263 0 
-265 752 0 
-263 -762 266 0 
-266 263 0 
-266 762 0 
-263 -772 267 0 
-267 263 0 
-267 772 0 
-263 -782 268 0 
-268 263 0 
-268 782 0 
-263 -792 269 0 
-269 263 0 
-269 792 0 
264 265 266 267 268 269 -263 270 0 
263 -270 0 
-270 -743 271 0 
-271 270 0 
-271 743 0 
-270 -753 272 0 
-272 270 0 
-272 753 0 
-270 -763 273 0 
-273 270 0 
-273 763 0 
-270 -773 274 0 
-274 270 0 
-274 773 0 
-270 -783 275 0 
-275 270 0 
-275 783 0 
-270 -793 276 0 
-276 270 0 
-276 793 0 
271 272 273 274 275 276 -270 277 0 
270 -277 0 
-277 -744 278 0 
-278 277 0 
-278 744 0 
-277 -754 279 0 
-279 277 0 
-279 754 0 
-277 -764 280 0 
-280 277 0 
-280 764 0 
-277 -774 281 0 
-281 277 0 
-281 774 0 
-277 -784 282 0 
-282 277 0 
-282 784 0 
-277 -794 283 0 
-283 277 0 
-283 794 0 
278 279 280 281 282 283 -277 284 0 
277 -284 0 
-284 -745 285 0 
-285 284 0 
-285 745 0 
-284 -755 286 0 
-286 284 0 
-286 755 0 
-284 -765 287 0 
-287 284 0 
-287 765 0 
-284 -775 288 0 
-288 284 0 
-288 775 0 
-284 -785 289 0 
-289 284 0 
-289 785 0 
-284 -795 290 0 
-290 284 0 
-290 795 0 
285 286 287 288 289 290 -284 291 0 
284 -291 0 
-291 -746 292 0 
-292 291 0 
-292 746 0 
-291 -756 293 0 
-293 291 0 
-293 756 0 
-291 -766 294 0 
-294 291 0 
-294 766 0 
-291 -776 295 0 
-295 291 0 
-295 776 0 
-291 -786 296 0 
-296 291 0 
-296 786 0 
-291 -796 297 0 
-297 291 0 
-297 796 0 
292 293 294 295 296 297 -291 298 0 
291 -298 0 
-298 -747 299 0 
-299 298 0 
-299 747 0 
-298 -757 300 0 
-300 298 0 
-300 757 0 
-298 -767 301 0 
-301 298 0 
-301 767 0 
-298 -777 302 0 
-302 298 0 
-302 777 0 
-298 -787 303 0 
-303 298 0 
-303 787 0 
-298 -797 304 0 
-304 298 0 
-304 797 0 
299 300 301 302 303 304 -298 305 0 
298 -305 0 
-305 -748 306 0 
-306 305 0 
-306 748 0 
-305 -758 307 0 
-307 305 0 
-307 758 0 
-305 -768 308 0 
-308 305 0 
-308 768 0 
-305 -778 309 0 
-309 305 0 
-309 778 0 
-305 -788 310 0 
-310 305 0 
-310 788 0 
-305 -798 311 0 
-311 305 0 
-311 798 0 
306 307 308 309 310 311 -305 312 0 
305 -312 0 
-28 -799 29 0 
-29 28 0 
-29 799 0 
-28 -809 30 0 
-30 28 0 
-30 809 0 
-28 -819 31 0 
-31 28 0 
-31 819 0 
-28 -829 32 0 
-32 28 0 
-32 829 0 
-28 -839 33 0 
-33 28 0 
-33 839 0 
-28 -849 34 0 
-34 28 0 
-34 849 0 
29 30 31 32 33 34 -28 313 0 
28 -313 0 
-313 -800 314 0 
-314 313 0 
-314 800 0 
-313 -810 315 0 
-315 313 0 
-315 810 0 
-313 -820 316 0 
-316 313 0 
-316 820 0 
-313 -830 317 0 
-317 313 0 
-317 830 0 
-313 -840 318 0 
-318 313 0 
-318 840 0 
-313 -850 319 0 
-319 313 0 
-319 850 0 
314 315 316 317 318 319 -313 320 0 
313 -320 0 
-320 -801 321 0 
-321 320 0 
-321 801 0 
-320 -811 322 0 
-322 320 0 
-322 811 0 
-320 -821 323 0 
-323 320 0 
-323 821 0 
-320 -831 324 0 
-324 320 0 
-324 831 0 
-320 -841 325 0 
-325 320 0 
-325 841 0 
-320 -851 326 0 
-326 320 0 
-326 851 0 
321 322 323 324 325 326 -320 327 0 
320 -327 0 
-327 -802 328 0 
-328 327 0 
-328 802 0 
-327 -812 329 0 
-329 327 0 
-329 812 0 
-327 -822 330 0 
-330 327 0 
-330 822 0 
-327 -832 331 0 
-331 327 0 
-331 832 0 
-327 -842 332 0 
-332 327 0 
-332 842 0 
-327 -852 333 0 
-333 327 0 
-333 852 0 
328 329 330 331 332 333 -327 334 0 
327 -334 0 
-334 -803 335 0 
-335 334 0 
-335 803 0 
-334 -813 336 0 
-336 334 0 
-336 813 0 
-334 -823 337 0 
-337 334 0 
-337 823 0 
-334 -833 338 0 
-338 334 0 
-338 833 0 
-334 -843 339 0 
-339 334 0 
-339 843 0 
-334 -853 340 0 
-340 334 0 
-340 853 0 
335 336 337 338 339 340 -334 341 0 
334 -341 0 
-341 -804 342 0 
-342 341 0 
-342 804 0 
-341 -814 343 0 
-343 341 0 
-343 814 0 
-341 -824 344 0 
-344 341 0 
-344 824 0 
-341 -834 345 0 
-345 341 0 
-345 834 0 
-341 -844 346 0 
-346 341 0 
-346 844 0 
-341 -854 347 0 
-347 341 0 
-347 854 0 
342 343 344 345 346 347 -341 348 0 
341 -348 0 
-348 -805 349 0 
-349 348 0 
-349 805 0 
-348 -815 350 0 
-350 348 0 
-350 815 0 
-348 -825 351 0 
-351 348 0 
-351 825 0 
-348 -835 352 0 
-352 348 0 
-352 835 0 
-348 -845 353 0 
-353 348 0 
-353 845 0 
-348 -855 354 0 
-354 348 0 
-354 855 0 
349 350 351 352 353 354 -348 355 0 
348 -355 0 
-355 -806 356 0 
-356 355 0 
-356 806 0 
-355 -816 357 0 
-357 355 0 
-357 816 0 
-355 -826 358 0 
-358 355 0 
-358 826 0 
-355 -836 359 0 
-359 355 0 
-359 836 0 
-355 -846 360 0 
-360 355 0 
-360 846 0 
-355 -856 361 0 
-361 355 0 
-361 856 0 
356 357 358 359 360 361 -355 362 0 
355 -362 0 
-362 -807 363 0 
-363 362 0 
-363 807 0 
-362 -817 364 0 
-364 362 0 
-364 817 0 
-362 -827 365 0 
-365 362 0 
-365 827 0 
-362 -837 366 0 
-366 362 0 
-366 837 0 
-362 -847 367 0 
-367 362 0 
-367 847 0 
-362 -857 368 0 
-368 362 0 
-368 857 0 
363 364 365 366 367 368 -362 369 0 
362 -369 0 
-369 -808 370 0 
-370 369 0 
-370 808 0 
-369 -818 371 0 
-371 369 0 
-371 818 0 
-369 -828 372 0 
-372 369 0 
-372 828 0 
-369 -838 373 0 
-373 369 0 
-373 838 0 
-369 -848 374 0 
-374 369 0 
-374 848 0 
-369 -858 375 0 
-375 369 0 
-375 858 0 
370 371 372 373 374 375 -369 376 0 
369 -376 0 
-35 -859 36 0 
-36 35 0 
-36 859 0 
-35 -869 37 0 
-37 35 0 
-37 869 0 
-35 -879 38 0 
-38 35 0 
-38 879 0 
-35 -889 39 0 
-39 35 0 
-39 889 0 
-35 -899 40 0 
-40 35 0 
-40 899 0 
-35 -909 41 0 
-41 35 0 
-41 909 0 
36 37 38 39 40 41 -35 377 0 
35 -377 0 
-377 -860 378 0 
-378 377 0 
-378 860 0 
-377 -870 379 0 
-379 377 0 
-379 870 0 
-377 -880 380 0 
-380 377 0 
-380 880 0 
-377 -890 381 0 
-381 377 0 
-381 890 0 
-377 -900 382 0 
-382 377 0 
-382 900 0 
-377 -910 383 0 
-383 377 0 
-383 910 0 
378 379 380 381 382 383 -377 384 0 
377 -384 0 
-384 -861 385 0 
-385 384 0 
-385 861 0 
-384 -871 386 0 
-386 384 0 
-386 871 0 
-384 -881 387 0 
-387 384 0 
-387 881 0 
-384 -891 388 0 
-388 384 0 
-388 891 0 
-384 -901 389 0 
-389 384 0 
-389 901 0 
-384 -911 390 0 
-390 384 0 
-390 911 0 
385 386 387 388 389 390 -384 391 0 
384 -391 0 
-391 -862 392 0 
-392 391 0 
-392 862 0 
-391 -872 393 0 
-393 391 0 
-393 872 0 
-391 -882 394 0 
-394 391 0 
-394 882 0 
-391 -892 395 0 
-395 391 0 
-395 892 0 
-391 -902 396 0 
-396 391 0 
-396 902 0 
-391 -912 397 0 
-397 391 0 
-397 912 0 
392 393 394 395 396 397 -391 398 0 
391 -398 0 
-398 -863 399 0 
-399 398 0 
-399 863 0 
-398 -873 400 0 
-400 398 0 
-400 873 0 
-398 -883 401 0 
-401 398 0 
-401 883 0 
-398 -893 402 0 
-402 398 0 
-402 893 0 
-398 -903 403 0 
-403 398 0 
-403 903 0 
-398 -913 404 0 
-404 398 0 
-404 913 0 
399 400 401 402 403 404 -398 405 0 
398 -405 0 
-405 -864 406 0 
-406 405 0 
-406 864 0 
-405 -874 407 0 
-407 405 0 
-407 874 0 
-405 -884 408 0 
-408 405 0 
-408 884 0 
-405 -894 409 0 
-409 405 0 
-409 894 0 
-405 -904 410 0 
-410 405 0 
-410 904 0 
-405 -914 411 0 
-411 405 0 
-411 914 0 
406 407 408 409 410 411 -405 412 0 
405 -412 0 
-412 -865 413 0 
-413 412 0 
-413 865 0 
-412 -875 414 0 
-414 412 0 
-414 875 0 
-412 -885 415 0 
-415 412 0 
-415 885 0 
-412 -895 416 0 
-416 412 0 
-416 895 0 
-412 -905 417 0 
-417 412 0 
-417 905 0 
-412 -915 418 0 
-418 412 0 
-418 915 0 
413 414 415 416 417 418 -412 419 0 
412 -419 0 
-419 -866 420 0 
-420 419 0 
-420 866 0 
-419 -876 421 0 
-421 419 0 
-421 876 0 
-419 -886 422 0 
-422 419 0 
-422 886 0 
-419 -896 423 0 
-423 419 0 
-423 896 0 
-419 -906 424 0 
-424 419 0 
-424 906 0 
-419 -916 425 0 
-425 419 0 
-425 916 0 
420 421 422 423 424 425 -419 426 0 
419 -426 0 
-426 -867 427 0 
-427 426 0 
-427 867 0 
-426 -877 428 0 
-428 426 0 
-428 877 0 
-426 -887 429 0 
-429 426 0 
-429 887 0 
-426 -897 430 0 
-430 426 0 
-430 897 0 
-426 -907 431 0 
-431 426 0 
-431 907 0 
-426 -917 432 0 
-432 426 0 
-432 917 0 
427 428 429 430 431 432 -426 433 0 
426 -433 0 
-433 -868 434 0 
-434 433 0 
-434 868 0 
-433 -878 435 0 
-435 433 0 
-435 878 0 
-433 -888 436 0 
-436 433 0 
-436 888 0 
-433 -898 437 0 
-437 433 0 
-437 898 0 
-433 -908 438 0 
-438 433 0 
-438 908 0 
-433 -918 439 0 
-439 433 0 
-439 918 0 
434 435 436 437 438 439 -433 440 0 
433 -440 0 
-42 -919 43 0 
-43 42 0 
-43 919 0 
-42 -929 44 0 
-44 42 0 
-44 929 0 
-42 -939 45 0 
-45 42 0 
-45 939 0 
-42 -949 46 0 
-46 42 0 
-46 949 0 
-42 -959 47 0 
-47 42 0 
-47 959 0 
-42 -969 48 0 
-48 42 0 
-48 969 0 
43 44 45 46 47 48 -42 441 0 
42 -441 0 
-441 -920 442 0 
-442 441 0 
-442 920 0 
-441 -930 443 0 
-443 441 0 
-443 930 0 
-441 -940 444 0 
-444 441 0 
-444 940 0 
-441 -950 445 0 
-445 441 0 
-445 950 0 
-441 -960 446 0 
-446 441 0 
-446 960 0 
-441 -970 447 0 
-447 441 0 
-447 970 0 
442 443 444 445 446 447 -441 448 0 
441 -448 0 
-448 -921 449 0 
-449 448 0 
-449 921 0 
-448 -931 450 0 
-450 448 0 
-450 931 0 
-448 -941 451 0 
-451 448 0 
-451 941 0 
-448 -951 452 0 
-452 448 0 
-452 951 0 
-448 -961 453 0 
-453 448 0 
-453 961 0 
-448 -971 454 0 
-454 448 0 
-454 971 0 
449 450 451 452 453 454 -448 455 0 
448 -455 0 
-455 -922 456 0 
-456 455 0 
-456 922 0 
-455 -932 457 0 
-457 455 0 
-457 932 0 
-455 -942 458 0 
-458 455 0 
-458 942 0 
-455 -952 459 0 
-459 455 0 
-459 952 0 
-455 -962 460 0 
-460 455 0 
-460 962 0 
-455 -972 461 0 
-461 455 0 
-461 972 0 
456 457 458 459 460 461 -455 462 0 
455 -462 0 
-462 -923 463 0 
-463 462 0 
-463 923 0 
-462 -933 464 0 
-464 462 0 
-464 933 0 
-462 -943 465 0 
-465 462 0 
-465 943 0 
-462 -953 466 0 
-466 462 0 
-466 953 0 
-462 -963 467 0 
-467 462 0 
-467 963 0 
-462 -973 468 0 
-468 462 0 
-468 973 0 
463 464 465 466 467 468 -462 469 0 
462 -469 0 
-469 -924 470 0 
-470 469 0 
-470 924 0 
-469 -934 471 0 
-471 469 0 
-471 934 0 
-469 -944 472 0 
-472 469 0 
-472 944 0 
-469 -954 473 0 
-473 469 0 
-473 954 0 
-469 -964 474 0 
-474 469 0 
-474 964 0 
-469 -974 475 0 
-475 469 0 
-475 974 0 
470 471 472 473 474 475 -469 476 0 
469 -476 0 
-476 -925 477 0 
-477 476 0 
-477 925 0 
-476 -935 478 0 
-478 476 0 
-478 935 0 
-476 -945 479 0 
-479 476 0 
-479 945 0 
-476 -955 480 0 
-480 476 0 
-480 955 0 
-476 -965 481 0 
-481 476 0 
-481 965 0 
-476 -975 482 0 
-482 476 0 
-482 975 0 
477 478 479 480 481 482 -476 483 0 
476 -483 0 
-483 -926 484 0 
-484 483 0 
-484 926 0 
-483 -936 485 0 
-485 483 0 
-485 936 0 
-483 -946 486 0 
-486 483 0 
-486 946 0 
-483 -956 487 0 
-487 483 0 
-487 956 0 
-483 -966 488 0 
-488 483 0 
-488 966 0 
-483 -976 489 0 
-489 483 0 
-489 976 0 
484 485 486 487 488 489 -483 490 0 
483 -490 0 
-490 -927 491 0 
-491 490 0 
-491 927 0 
-490 -937 492 0 
-492 490 0 
-492 937 0 
-490 -947 493 0 
-493 490 0 
-493 947 0 
-490 -957 494 0 
-494 490 0 
-494 957 0 
-490 -967 495 0 
-495 490 0 
-495 967 0 
-490 -977 496 0 
-496 490 0 
-496 977 0 
491 492 493 494 495 496 -490 497 0 
490 -497 0 
-497 -928 498 0 
-498 497 0 
-498 928 0 
-497 -938 499 0 
-499 497 0 
-499 938 0 
-497 -948 500 0 
-500 497 0 
-500 948 0 
-497 -958 501 0 
-501 497 0 
-501 958 0 
-497 -968 502 0 
-502 497 0 
-502 968 0 
-497 -978 503 0 
-503 497 0 
-503 978 0 
498 499 500 501 502 503 -497 504 0 
497 -504 0 
-49 -979 50 0 
-50 49 0 
-50 979 0 
50 -49 505 0 
49 -505 0 
-505 -980 506 0 
-506 505 0 
-506 980 0 
506 -505 507 0 
505 -507 0 
-507 -981 508 0 
-508 507 0 
-508 981 0 
508 -507 509 0 
507 -509 0 
-509 -982 510 0 
-510 509 0 
-510 982 0 
510 -509 511 0 
509 -511 0 
-511 -983 512 0 
-512 511 0 
-512 983 0 
512 -511 513 0 
511 -513 0 
-513 -984 514 0 
-514 513 0 
-514 984 0 
514 -513 515 0 
513 -515 0 
-515 -985 516 0 
-516 515 0 
-516 985 0 
516 -515 517 0 
515 -517 0 
-517 -986 518 0 
-518 517 0 
-518 986 0 
518 -517 519 0 
517 -519 0 
-519 -987 520 0 
-520 519 0 
-520 987 0 
520 -519 521 0 
519 -521 0 
-521 -988 522 0 
-522 521 0 
-522 988 0 
522 -521 523 0 
521 -523 0 
-51 -989 52 0 
-52 51 0 
-52 989 0 
52 -51 524 0 
51 -524 0 
-524 -990 525 0 
-525 524 0 
-525 990 0 
525 -524 526 0 
524 -526 0 
-526 -991 527 0 
-527 526 0 
-527 991 0 
527 -526 528 0 
526 -528 0 
-528 -992 529 0 
-529 528 0 
-529 992 0 
529 -528 530 0 
528 -530 0 
-530 -993 531 0 
-531 530 0 
-531 993 0 
531 -530 532 0 
530 -532 0 
-532 -994 533 0 
-533 532 0 
-533 994 0 
533 -532 534 0 
532 -534 0 
-534 -995 535 0 
-535 534 0 
-535 995 0 
535 -534 536 0 
534 -536 0 
-536 -996 537 0 
-537 536 0 
-537 996 0 
537 -536 538 0 
536 -538 0 
-538 -997 539 0 
-539 538 0 
-539 997 0 
539 -538 540 0 
538 -540 0 
-540 -998 541 0 
-541 540 0 
-541 998 0 
541 -540 542 0 
540 -542 0 
-53 -999 54 0 
-54 53 0 
-54 999 0 
54 -53 543 0 
53 -543 0 
-543 -1000 544 0 
-544 543 0 
-544 1000 0 
544 -543 545 0 
543 -545 0 
-545 -1001 546 0 
-546 545 0 
-546 1001 0 
546 -545 547 0 
545 -547 0 
-547 -1002 548 0 
-548 547 0 
-548 1002 0 
548 -547 549 0 
547 -549 0 
-549 -1003 550 0 
-550 549 0 
-550 1003 0 
550 -549 551 0 
549 -551 0 
-551 -1004 552 0 
-552 551 0 
-552 1004 0 
552 -551 553 0 
551 -553 0 
-553 -1005 554 0 
-554 553 0 
-554 1005 0 
554 -553 555 0 
553 -555 0 
-555 -1006 556 0 
-556 555 0 
-556 1006 0 
556 -555 557 0 
555 -557 0 
-557 -1007 558 0 
-558 557 0 
-558 1007 0 
558 -557 559 0 
557 -559 0 
-559 -1008 560 0 
-560 559 0 
-560 1008 0 
560 -559 561 0 
559 -561 0 
-55 -1009 56 0 
-56 55 0 
-56 1009 0 
56 -55 562 0 
55 -562 0 
-562 -1010 563 0 
-563 562 0 
-563 1010 0 
563 -562 564 0 
562 -564 0 
-564 -1011 565 0 
-565 564 0 
-565 1011 0 
565 -564 566 0 
564 -566 0 
-566 -1012 567 0 
-567 566 0 
-567 1012 0 
567 -566 568 0 
566 -568 0 
-568 -1013 569 0 
-569 568 0 
-569 1013 0 
569 -568 570 0 
568 -570 0 
-570 -1014 571 0 
-571 570 0 
-571 1014 0 
571 -570 572 0 
570 -572 0 
-572 -1015 573 0 
-573 572 0 
-573 1015 0 
573 -572 574 0 
572 -574 0 
-574 -1016 575 0 
-575 574 0 
-575 1016 0 
575 -574 576 0 
574 -576 0 
-576 -1017 577 0 
-577 576 0 
-577 1017 0 
577 -576 578 0 
576 -578 0 
-578 -1018 579 0 
-579 578 0 
-579 1018 0 
579 -578 580 0 
578 -580 0 
-57 -1019 58 0 
-58 57 0 
-58 1019 0 
58 -57 581 0 
57 -581 0 
-581 -1020 582 0 
-582 581 0 
-582 1020 0 
582 -581 583 0 
581 -583 0 
-583 -1021 584 0 
-584 583 0 
-584 1021 0 
584 -583 585 0 
583 -585 0 
-585 -1022 586 0 
-586 585 0 
-586 1022 0 
586 -585 587 0 
585 -587 0 
-587 -1023 588 0 
-588 587 0 
-588 1023 0 
588 -587 589 0 
587 -589 0 
-589 -1024 590 0 
-590 589 0 
-590 1024 0 
590 -589 591 0 
589 -591 0 
-591 -1025 592 0 
-592 591 0 
-592 1025 0 
592 -591 593 0 
591 -593 0 
-593 -1026 594 0 
-594 593 0 
-594 1026 0 
594 -593 595 0 
593 -595 0 
-595 -1027 596 0 
-596 595 0 
-596 1027 0 
596 -595 597 0 
595 -597 0 
-597 -1028 598 0 
-598 597 0 
-598 1028 0 
598 -597 599 0 
597 -599 0 
-59 -1029 60 0 
-60 59 0 
-60 1029 0 
60 -59 600 0 
59 -600 0 
-600 -1030 601 0 
-601 600 0 
-601 1030 0 
601 -600 602 0 
600 -602 0 
-602 -1031 603 0 
-603 602 0 
-603 1031 0 
603 -602 604 0 
602 -604 0 
-604 -1032 605 0 
-605 604 0 
-605 1032 0 
605 -604 606 0 
604 -606 0 
-606 -1033 607 0 
-607 606 0 
-607 1033 0 
607 -606 608 0 
606 -608 0 
-608 -1034 609 0 
-609 608 0 
-609 1034 0 
609 -608 610 0 
608 -610 0 
-610 -1035 611 0 
-611 610 0 
-611 1035 0 
611 -610 612 0 
610 -612 0 
-612 -1036 613 0 
-613 612 0 
-613 1036 0 
613 -612 614 0 
612 -614 0 
-614 -1037 615 0 
-615 614 0 
-615 1037 0 
615 -614 616 0 
614 -616 0 
-616 -1038 617 0 
-617 616 0 
-617 1038 0 
617 -616 618 0 
616 -618 0 
